c colouring generated by benchmark framework
p edge 450 5734
v 1 2
v 2 2
v 3 4
v 4 0
v 5 1
v 6 2
v 7 4
v 8 4
v 9 0
v 10 1
v 11 2
v 12 4
v 13 3
v 14 0
v 15 1
v 16 2
v 17 4
v 18 4
v 19 0
v 20 1
v 21 2
v 22 4
v 23 0
v 24 2
v 25 1
v 26 5
v 27 2
v 28 4
v 29 0
v 30 1
v 31 2
v 32 2
v 33 4
v 34 0
v 35 1
v 36 2
v 37 3
v 38 3
v 39 0
v 40 1
v 41 2
v 42 3
v 43 4
v 44 0
v 45 1
v 46 5
v 47 3
v 48 4
v 49 0
v 50 1
v 51 2
v 52 2
v 53 3
v 54 0
v 55 1
v 56 5
v 57 3
v 58 4
v 59 0
v 60 1
v 61 3
v 62 3
v 63 3
v 64 0
v 65 1
v 66 5
v 67 3
v 68 4
v 69 0
v 70 1
v 71 5
v 72 3
v 73 4
v 74 0
v 75 1
v 76 1
v 77 3
v 78 3
v 79 0
v 80 1
v 81 2
v 82 3
v 83 4
v 84 4
v 85 5
v 86 2
v 87 3
v 88 2
v 89 0
v 90 5
v 91 2
v 92 3
v 93 4
v 94 0
v 95 1
v 96 5
v 97 3
v 98 4
v 99 0
v 100 1
v 101 2
v 102 3
v 103 3
v 104 0
v 105 1
v 106 5
v 107 4
v 108 4
v 109 0
v 110 1
v 111 5
v 112 5
v 113 4
v 114 0
v 115 1
v 116 2
v 117 2
v 118 4
v 119 0
v 120 1
v 121 2
v 122 4
v 123 4
v 124 0
v 125 1
v 126 5
v 127 4
v 128 4
v 129 0
v 130 1
v 131 2
v 132 4
v 133 0
v 134 0
v 135 1
v 136 5
v 137 3
v 138 2
v 139 0
v 140 1
v 141 6
v 142 2
v 143 3
v 144 0
v 145 1
v 146 2
v 147 3
v 148 4
v 149 0
v 150 1
v 151 2
v 152 3
v 153 3
v 154 0
v 155 1
v 156 2
v 157 2
v 158 4
v 159 0
v 160 1
v 161 2
v 162 3
v 163 4
v 164 0
v 165 1
v 166 1
v 167 3
v 168 3
v 169 0
v 170 1
v 171 3
v 172 3
v 173 4
v 174 4
v 175 1
v 176 5
v 177 3
v 178 4
v 179 0
v 180 1
v 181 5
v 182 2
v 183 4
v 184 0
v 185 1
v 186 5
v 187 3
v 188 4
v 189 0
v 190 1
v 191 5
v 192 3
v 193 3
v 194 0
v 195 1
v 196 2
v 197 3
v 198 4
v 199 0
v 200 2
v 201 5
v 202 3
v 203 4
v 204 0
v 205 1
v 206 2
v 207 2
v 208 4
v 209 0
v 210 1
v 211 2
v 212 3
v 213 4
v 214 0
v 215 1
v 216 2
v 217 5
v 218 3
v 219 0
v 220 1
v 221 5
v 222 4
v 223 4
v 224 0
v 225 1
v 226 2
v 227 0
v 228 4
v 229 0
v 230 1
v 231 2
v 232 4
v 233 3
v 234 0
v 235 1
v 236 2
v 237 4
v 238 4
v 239 0
v 240 1
v 241 2
v 242 4
v 243 3
v 244 0
v 245 1
v 246 2
v 247 2
v 248 0
v 249 0
v 250 1
v 251 5
v 252 3
v 253 4
v 254 0
v 255 1
v 256 1
v 257 3
v 258 3
v 259 0
v 260 1
v 261 2
v 262 3
v 263 4
v 264 4
v 265 1
v 266 2
v 267 2
v 268 4
v 269 0
v 270 1
v 271 5
v 272 2
v 273 4
v 274 0
v 275 1
v 276 2
v 277 3
v 278 4
v 279 0
v 280 1
v 281 3
v 282 3
v 283 3
v 284 0
v 285 1
v 286 3
v 287 3
v 288 4
v 289 0
v 290 1
v 291 5
v 292 3
v 293 4
v 294 0
v 295 1
v 296 5
v 297 2
v 298 4
v 299 0
v 300 1
v 301 5
v 302 3
v 303 4
v 304 0
v 305 1
v 306 2
v 307 3
v 308 4
v 309 0
v 310 2
v 311 2
v 312 3
v 313 4
v 314 0
v 315 2
v 316 2
v 317 3
v 318 4
v 319 0
v 320 1
v 321 2
v 322 2
v 323 5
v 324 0
v 325 1
v 326 2
v 327 3
v 328 4
v 329 0
v 330 1
v 331 5
v 332 4
v 333 3
v 334 0
v 335 1
v 336 2
v 337 2
v 338 4
v 339 0
v 340 1
v 341 5
v 342 5
v 343 4
v 344 0
v 345 1
v 346 1
v 347 4
v 348 3
v 349 0
v 350 1
v 351 2
v 352 4
v 353 4
v 354 4
v 355 1
v 356 2
v 357 4
v 358 0
v 359 0
v 360 1
v 361 2
v 362 2
v 363 5
v 364 0
v 365 1
v 366 5
v 367 3
v 368 4
v 369 0
v 370 1
v 371 2
v 372 3
v 373 2
v 374 0
v 375 1
v 376 2
v 377 3
v 378 4
v 379 0
v 380 1
v 381 2
v 382 3
v 383 4
v 384 0
v 385 1
v 386 5
v 387 2
v 388 4
v 389 0
v 390 1
v 391 5
v 392 3
v 393 4
v 394 0
v 395 1
v 396 3
v 397 3
v 398 4
v 399 0
v 400 1
v 401 3
v 402 3
v 403 4
v 404 0
v 405 1
v 406 5
v 407 3
v 408 4
v 409 0
v 410 1
v 411 5
v 412 2
v 413 3
v 414 0
v 415 1
v 416 5
v 417 3
v 418 4
v 419 0
v 420 1
v 421 2
v 422 3
v 423 3
v 424 0
v 425 6
v 426 2
v 427 3
v 428 4
v 429 0
v 430 1
v 431 2
v 432 3
v 433 4
v 434 0
v 435 1
v 436 1
v 437 3
v 438 3
v 439 0
v 440 1
v 441 5
v 442 6
v 443 4
v 444 4
v 445 1
v 446 5
v 447 4
v 448 4
v 449 0
v 450 1
